p cnf 603 781
-489 0
-490 0
-391 487 0
-487 391 0
-491 -492 0
-393 491 0
-394 492 0
-491 393 0
-492 394 0
-494 -495 0
-396 494 0
-397 495 0
-494 396 0
-495 397 0
-497 -498 0
-497 -499 0
-498 -499 0
-399 499 0
-400 497 0
-401 498 0
-402 497 0
-497 400 402 0
-498 401 0
-499 399 0
-502 507 508 509 510 511 0
-507 -508 0
-507 -509 0
-507 -510 0
-507 -511 0
-508 -509 0
-508 -510 0
-508 -511 0
-509 -510 0
-509 -511 0
-510 -511 0
-502 512 513 514 515 516 517 518 0
-512 -513 0
-512 -514 0
-512 -515 0
-512 -516 0
-512 -517 0
-512 -518 0
-513 -514 0
-513 -515 0
-513 -516 0
-513 -517 0
-513 -518 0
-514 -515 0
-514 -516 0
-514 -517 0
-514 -518 0
-515 -516 0
-515 -517 0
-515 -518 0
-516 -517 0
-516 -518 0
-517 -518 0
-502 519 520 521 522 523 524 525 526 0
-519 -520 0
-519 -521 0
-519 -522 0
-519 -523 0
-519 -524 0
-519 -525 0
-519 -526 0
-520 -521 0
-520 -522 0
-520 -523 0
-520 -524 0
-520 -525 0
-520 -526 0
-521 -522 0
-521 -523 0
-521 -524 0
-521 -525 0
-521 -526 0
-522 -523 0
-522 -524 0
-522 -525 0
-522 -526 0
-523 -524 0
-523 -525 0
-523 -526 0
-524 -525 0
-524 -526 0
-525 -526 0
-502 506 0
-502 504 0
-502 505 0
-501 -502 0
-523 -504 458 0
-522 -504 432 0
-524 -504 433 0
-520 -504 452 0
-519 -504 457 0
-521 -504 449 0
-525 -504 464 0
-526 -504 439 0
-510 -512 -505 447 0
-510 -517 -505 455 0
-510 -513 -505 434 0
-508 -516 -505 435 0
-510 -518 -505 437 0
-507 -513 -505 438 0
-509 -513 -505 450 0
-511 -516 -505 466 0
-509 -518 -505 440 0
-510 -515 -505 441 0
-509 -516 -505 459 0
-507 -516 -505 451 0
-511 -517 -505 443 0
-511 -513 -505 467 0
-507 -517 -505 468 0
-510 -514 -505 461 0
-508 -513 -505 462 0
-511 -512 -505 445 0
-511 -514 -505 463 0
-508 -518 -505 454 0
-511 -518 -505 446 0
-510 -516 -505 465 0
-507 -518 -505 470 0
-508 -514 -505 471 0
-507 -514 -505 472 0
-507 -506 326 0
-510 -506 338 0
-508 -506 331 0
-511 -506 341 0
-509 -506 325 0
-502 -509 -512 0
-502 -509 -514 0
-502 -509 -515 0
-502 -509 -517 0
-502 -507 -512 0
-502 -507 -515 0
-502 -511 -515 0
-502 -508 -512 0
-502 -508 -515 0
-502 -508 -517 0
-502 -509 -524 0
-502 -509 -525 0
-502 -509 -522 0
-502 -509 -519 0
-502 -509 -521 0
-502 -507 -525 0
-502 -507 -522 0
-502 -507 -519 0
-502 -511 -525 0
-502 -511 -522 0
-502 -508 -524 0
-502 -508 -525 0
-502 -508 -522 0
-502 -508 -519 0
-502 -510 -525 0
-430 502 0
-429 501 0
-501 429 0
-502 430 0
-527 531 0
-528 531 0
-529 -531 0
-530 -531 0
-432 532 -502 522 0
-432 532 502 0
432 -532 -502 511 0
432 -532 502 0
-433 533 -502 524 0
-433 533 502 0
433 -533 -502 508 0
433 -533 502 0
-434 534 -502 -510 513 0
-434 534 -502 510 0
-434 534 502 0
434 -534 -502 -510 520 0
434 -534 -502 510 0
434 -534 502 0
-435 535 -502 -508 516 0
-435 535 -502 508 0
-435 535 502 0
435 -535 -502 -508 523 0
435 -535 -502 508 0
435 -535 502 0
-437 536 -502 -510 518 0
-437 536 -502 510 0
-437 536 502 0
437 -536 -502 -510 526 0
437 -536 -502 510 0
437 -536 502 0
-438 537 -502 -507 513 0
-438 537 -502 507 0
-438 537 502 0
438 -537 -502 -507 520 0
438 -537 -502 507 0
438 -537 502 0
-439 538 -502 526 0
-439 538 502 0
439 -538 0
-440 539 -502 -509 518 0
-440 539 -502 509 0
-440 539 502 0
440 -539 -502 -509 526 0
440 -539 -502 509 0
440 -539 502 0
-489 540 0
489 -540 -502 518 0
489 -540 502 0
-441 541 -502 -510 515 0
-441 541 -502 510 0
-441 541 502 0
441 -541 -502 -510 522 0
441 -541 -502 510 0
441 -541 502 0
-443 542 -502 -511 517 0
-443 542 -502 511 0
-443 542 502 0
443 -542 -502 -511 524 0
443 -542 -502 511 0
443 -542 502 0
-331 543 -502 508 0
-331 543 502 0
331 -543 -502 517 0
331 -543 502 0
-445 544 -502 -511 512 0
-445 544 -502 511 0
-445 544 502 0
445 -544 -502 -511 519 0
445 -544 -502 511 0
445 -544 502 0
-338 545 -502 510 0
-338 545 502 0
338 -545 0
-446 546 -502 -511 518 0
-446 546 -502 511 0
-446 546 502 0
446 -546 -502 -511 526 0
446 -546 -502 511 0
446 -546 502 0
-447 547 -502 -510 512 0
-447 547 -502 510 0
-447 547 502 0
447 -547 -502 -510 519 0
447 -547 -502 510 0
447 -547 502 0
-449 548 -502 521 0
-449 548 502 0
449 -548 -502 509 0
449 -548 502 0
-344 549 0
344 -549 -502 516 0
344 -549 502 0
-450 550 -502 -509 513 0
-450 550 -502 509 0
-450 550 502 0
450 -550 -502 -509 520 0
450 -550 -502 509 0
450 -550 502 0
-451 551 -502 -507 516 0
-451 551 -502 507 0
-451 551 502 0
451 -551 -502 -507 523 0
451 -551 -502 507 0
451 -551 502 0
-452 552 -502 520 0
-452 552 502 0
452 -552 0
-454 553 -502 -508 518 0
-454 553 -502 508 0
-454 553 502 0
454 -553 -502 -508 526 0
454 -553 -502 508 0
454 -553 502 0
-455 554 -502 -510 517 0
-455 554 -502 510 0
-455 554 502 0
455 -554 -502 -510 524 0
455 -554 -502 510 0
455 -554 502 0
-457 555 -502 519 0
-457 555 502 0
457 -555 -502 507 0
457 -555 502 0
-325 556 -502 509 0
-325 556 502 0
325 -556 -502 514 0
325 -556 502 0
-458 557 -502 523 0
-458 557 502 0
458 -557 0
-326 558 -502 507 0
-326 558 502 0
326 -558 -502 512 0
326 -558 502 0
-459 559 -502 -509 516 0
-459 559 -502 509 0
-459 559 502 0
459 -559 -502 -509 523 0
459 -559 -502 509 0
459 -559 502 0
-461 560 -502 -510 514 0
-461 560 -502 510 0
-461 560 502 0
461 -560 -502 -510 521 0
461 -560 -502 510 0
461 -560 502 0
-462 561 -502 -508 513 0
-462 561 -502 508 0
-462 561 502 0
462 -561 -502 -508 520 0
462 -561 -502 508 0
462 -561 502 0
-463 562 -502 -511 514 0
-463 562 -502 511 0
-463 562 502 0
463 -562 -502 -511 521 0
463 -562 -502 511 0
463 -562 502 0
-464 563 -502 525 0
-464 563 502 0
464 -563 -502 510 0
464 -563 502 0
-465 564 -502 -510 516 0
-465 564 -502 510 0
-465 564 502 0
465 -564 -502 -510 523 0
465 -564 -502 510 0
465 -564 502 0
-341 565 -502 511 0
-341 565 502 0
341 -565 -502 515 0
341 -565 502 0
-466 566 -502 -511 516 0
-466 566 -502 511 0
-466 566 502 0
466 -566 -502 -511 523 0
466 -566 -502 511 0
466 -566 502 0
-467 567 -502 -511 513 0
-467 567 -502 511 0
-467 567 502 0
467 -567 -502 -511 520 0
467 -567 -502 511 0
467 -567 502 0
-468 568 -502 -507 517 0
-468 568 -502 507 0
-468 568 502 0
468 -568 -502 -507 524 0
468 -568 -502 507 0
468 -568 502 0
-490 569 0
490 -569 -502 513 0
490 -569 502 0
-470 570 -502 -507 518 0
-470 570 -502 507 0
-470 570 502 0
470 -570 -502 -507 526 0
470 -570 -502 507 0
470 -570 502 0
-471 571 -502 -508 514 0
-471 571 -502 508 0
-471 571 502 0
471 -571 -502 -508 521 0
471 -571 -502 508 0
471 -571 502 0
-472 572 -502 -507 514 0
-472 572 -502 507 0
-472 572 502 0
472 -572 -502 -507 521 0
472 -572 -502 507 0
472 -572 502 0
-528 448 0
-528 549 0
-529 583 584 585 586 587 588 589 590 0
-583 -584 0
-583 -585 0
-583 -586 0
-583 -587 0
-583 -588 0
-583 -589 0
-583 -590 0
-584 -585 0
-584 -586 0
-584 -587 0
-584 -588 0
-584 -589 0
-584 -590 0
-585 -586 0
-585 -587 0
-585 -588 0
-585 -589 0
-585 -590 0
-586 -587 0
-586 -588 0
-586 -589 0
-586 -590 0
-587 -588 0
-587 -589 0
-587 -590 0
-588 -589 0
-588 -590 0
-589 -590 0
-529 591 592 593 594 595 0
-591 -592 0
-591 -593 0
-591 -594 0
-591 -595 0
-592 -593 0
-592 -594 0
-592 -595 0
-593 -594 0
-593 -595 0
-594 -595 0
-529 580 0
-529 579 0
-530 591 592 593 594 595 0
-591 -592 0
-591 -593 0
-591 -594 0
-591 -595 0
-592 -593 0
-592 -594 0
-592 -595 0
-593 -594 0
-593 -595 0
-594 -595 0
-530 583 584 585 586 587 588 589 590 0
-583 -584 0
-583 -585 0
-583 -586 0
-583 -587 0
-583 -588 0
-583 -589 0
-583 -590 0
-584 -585 0
-584 -586 0
-584 -587 0
-584 -588 0
-584 -589 0
-584 -590 0
-585 -586 0
-585 -587 0
-585 -588 0
-585 -589 0
-585 -590 0
-586 -587 0
-586 -588 0
-586 -589 0
-586 -590 0
-587 -588 0
-587 -589 0
-587 -590 0
-588 -589 0
-588 -590 0
-589 -590 0
-530 582 0
-530 576 0
-527 -528 0
-527 -529 0
-527 -530 0
-528 -529 0
-528 -530 0
-529 -530 0
-523 573 -557 0
-522 573 -532 0
-524 573 -533 0
-520 573 -552 0
-519 573 -555 0
-521 573 -548 0
-525 573 -563 0
-526 573 -538 0
-507 -574 555 0
-511 -574 532 0
-508 -574 533 0
-509 -574 548 0
-510 -574 563 0
-510 -512 575 -547 0
-510 -517 575 -554 0
-510 -513 575 -534 0
-508 -516 575 -535 0
-510 -518 575 -536 0
-507 -513 575 -537 0
-509 -513 575 -550 0
-511 -516 575 -566 0
-509 -518 575 -539 0
-510 -515 575 -541 0
-509 -516 575 -559 0
-507 -516 575 -551 0
-511 -517 575 -542 0
-511 -513 575 -567 0
-507 -517 575 -568 0
-510 -514 575 -560 0
-508 -513 575 -561 0
-511 -512 575 -544 0
-511 -514 575 -562 0
-508 -518 575 -553 0
-511 -518 575 -546 0
-510 -516 575 -564 0
-507 -518 575 -570 0
-508 -514 575 -571 0
-507 -514 575 -572 0
-584 -576 448 0
-589 -576 442 0
-590 -576 456 0
-585 -576 436 0
-588 -576 460 0
-586 -576 444 0
-587 -576 453 0
-583 -576 469 0
-507 577 -558 0
-510 577 -545 0
-508 577 -543 0
-511 577 -565 0
-509 577 -556 0
-512 -578 558 0
-517 -578 543 0
-513 -578 569 0
-516 -578 549 0
-515 -578 565 0
-514 -578 556 0
-518 -578 540 0
-583 -579 558 0
-588 -579 543 0
-584 -579 569 0
-589 -579 545 0
-587 -579 549 0
-586 -579 565 0
-585 -579 556 0
-590 -579 540 0
-591 -580 469 0
-594 -580 442 0
-593 -580 436 0
-592 -580 460 0
-595 -580 444 0
-510 -519 -581 547 0
-510 -524 -581 554 0
-510 -520 -581 534 0
-508 -523 -581 535 0
-510 -526 -581 536 0
-507 -520 -581 537 0
-509 -520 -581 550 0
-511 -523 -581 566 0
-509 -526 -581 539 0
-510 -522 -581 541 0
-509 -523 -581 559 0
-507 -523 -581 551 0
-511 -524 -581 542 0
-511 -520 -581 567 0
-507 -524 -581 568 0
-510 -521 -581 560 0
-508 -520 -581 561 0
-511 -519 -581 544 0
-511 -521 -581 562 0
-508 -526 -581 553 0
-511 -526 -581 546 0
-510 -523 -581 564 0
-507 -526 -581 570 0
-508 -521 -581 571 0
-507 -521 -581 572 0
-591 -582 558 0
-594 -582 545 0
-592 -582 543 0
-595 -582 565 0
-593 -582 556 0
-502 581 0
-596 507 -512 0
-596 -507 512 0
-596 508 -517 0
-596 -508 517 0
-596 509 -514 0
-596 -509 514 0
-596 511 -515 0
-596 -511 515 0
-507 -512 596 0
-508 -517 596 0
-509 -514 596 0
-511 -515 596 0
-510 -596 0
-516 -596 0
-513 -596 0
-518 -596 0
-502 -577 596 0
-597 519 -507 0
-597 -519 507 0
-597 524 -508 0
-597 -524 508 0
-597 521 -509 0
-597 -521 509 0
-597 525 -510 0
-597 -525 510 0
-597 522 -511 0
-597 -522 511 0
-519 -507 597 0
-524 -508 597 0
-521 -509 597 0
-525 -510 597 0
-522 -511 597 0
-523 -597 0
-520 -597 0
-526 -597 0
-598 519 -512 0
-598 -519 512 0
-598 520 -513 0
-598 -520 513 0
-598 521 -514 0
-598 -521 514 0
-598 522 -515 0
-598 -522 515 0
-598 523 -516 0
-598 -523 516 0
-598 524 -517 0
-598 -524 517 0
-598 526 -518 0
-598 -526 518 0
-519 -512 598 0
-520 -513 598 0
-521 -514 598 0
-522 -515 598 0
-523 -516 598 0
-524 -517 598 0
-526 -518 598 0
-525 -598 0
-502 -573 597 0
-599 512 -519 0
-599 -512 519 0
-599 513 -520 0
-599 -513 520 0
-599 514 -521 0
-599 -514 521 0
-599 515 -522 0
-599 -515 522 0
-599 516 -523 0
-599 -516 523 0
-599 517 -524 0
-599 -517 524 0
-599 518 -526 0
-599 -518 526 0
-512 -519 599 0
-513 -520 599 0
-514 -521 599 0
-515 -522 599 0
-516 -523 599 0
-517 -524 599 0
-518 -526 599 0
-525 -599 0
-502 -575 599 0
-502 574 0
-502 578 0
-529 -592 -588 0
-529 -592 -589 0
-529 -592 -583 0
-529 -592 -586 0
-529 -594 -589 0
-529 -593 -588 0
-529 -593 -589 0
-529 -593 -583 0
-529 -593 -586 0
-529 -593 -585 0
-529 -591 -589 0
-529 -591 -583 0
-529 -591 -586 0
-529 -595 -589 0
-529 -595 -586 0
-530 -592 -588 0
-530 -592 -589 0
-530 -592 -583 0
-530 -592 -586 0
-530 -594 -589 0
-530 -593 -588 0
-530 -593 -589 0
-530 -593 -583 0
-530 -593 -586 0
-530 -593 -585 0
-530 -591 -589 0
-530 -591 -583 0
-530 -591 -586 0
-530 -595 -589 0
-530 -595 -586 0
-430 528 529 530 0
-429 527 0
-528 430 0
-529 430 0
-530 430 0
-527 429 0
-532 151 -531 0
532 -151 -531 0
-533 152 -531 0
533 -152 -531 0
-534 154 -531 0
534 -154 -531 0
-535 155 -531 0
535 -155 -531 0
-436 385 -531 0
436 -385 -531 0
-536 156 -531 0
536 -156 -531 0
-537 158 -531 0
537 -158 -531 0
-538 159 -531 0
538 -159 -531 0
-539 160 -531 0
539 -160 -531 0
-540 602 -531 0
540 -602 -531 0
-541 10 -531 0
541 -10 -531 0
-442 162 -531 0
442 -162 -531 0
-542 163 -531 0
542 -163 -531 0
-543 270 -531 0
543 -270 -531 0
-444 386 -531 0
444 -386 -531 0
-544 11 -531 0
544 -11 -531 0
-545 271 -531 0
545 -271 -531 0
-546 167 -531 0
546 -167 -531 0
-547 170 -531 0
547 -170 -531 0
-448 171 -531 0
448 -171 -531 0
-548 172 -531 0
548 -172 -531 0
-549 273 -531 0
549 -273 -531 0
-550 12 -531 0
550 -12 -531 0
-551 174 -531 0
551 -174 -531 0
-552 274 -531 0
552 -274 -531 0
-453 387 -531 0
453 -387 -531 0
-553 176 -531 0
553 -176 -531 0
-554 153 -531 0
554 -153 -531 0
-456 388 -531 0
456 -388 -531 0
-555 157 -531 0
555 -157 -531 0
-556 267 -531 0
556 -267 -531 0
-557 268 -531 0
557 -268 -531 0
-558 269 -531 0
558 -269 -531 0
-559 161 -531 0
559 -161 -531 0
-460 389 -531 0
460 -389 -531 0
-560 164 -531 0
560 -164 -531 0
-561 165 -531 0
561 -165 -531 0
-562 166 -531 0
562 -166 -531 0
-563 168 -531 0
563 -168 -531 0
-564 169 -531 0
564 -169 -531 0
-565 272 -531 0
565 -272 -531 0
-566 173 -531 0
566 -173 -531 0
-567 175 -531 0
567 -175 -531 0
-568 13 -531 0
568 -13 -531 0
-569 603 -531 0
569 -603 -531 0
-469 390 -531 0
469 -390 -531 0
-570 177 -531 0
570 -177 -531 0
-571 14 -531 0
571 -14 -531 0
-572 178 -531 0
572 -178 -531 0
-485 600 0
-600 485 0
a 531 0
